benchmark/results/graph__15-1000-0.10-03_8/error_log/graph__15-1000-0.10-03_8_Quinton_Benders_primal_sub_ERRORLOG.lp
\ This file has been generated by DOcplex
\ ENCODING=ISO-8859-1
\Problem name: Quinton Benders_primal_sub

Maximize
 obj: tau
Subject To
 c1: tau <= 0.001766784452
 c2: y_a0_proc_0 + y_a0_proc_1 + y_a0_proc_2 - tau = 0
 c3: y_a0_proc_0 <= 1
 c4: y_a0_proc_1 <= 0
 c5: y_a0_proc_2 <= 0
 c6: tau <= 0.001107419712
 c7: y_a1_proc_0 + y_a1_proc_1 + y_a1_proc_2 - tau = 0
 c8: y_a1_proc_0 <= 1
 c9: y_a1_proc_1 <= 0
 c10: y_a1_proc_2 <= 0
 c11: tau <= 0.000937207123
 c12: y_a2_proc_0 + y_a2_proc_1 + y_a2_proc_2 - tau = 0
 c13: y_a2_proc_0 <= 0
 c14: y_a2_proc_1 <= 1
 c15: y_a2_proc_2 <= 0
 c16: tau <= 0.000888099467
 c17: y_a3_proc_1 + y_a3_proc_2 - tau = 0
 c18: y_a3_proc_1 <= 0
 c19: y_a3_proc_2 <= 1
 c20: tau <= 0.001089324619
 c21: y_a4_proc_0 + y_a4_proc_1 + y_a4_proc_2 - tau = 0
 c22: y_a4_proc_0 <= 0
 c23: y_a4_proc_1 <= 1
 c24: y_a4_proc_2 <= 0
 c25: tau <= 0.001129943503
 c26: y_a5_proc_0 + y_a5_proc_2 - tau = 0
 c27: y_a5_proc_0 <= 1
 c28: y_a5_proc_2 <= 0
 c29: tau <= 0.001901140684
 c30: y_a6_proc_0 + y_a6_proc_1 - tau = 0
 c31: y_a6_proc_0 <= 1
 c32: y_a6_proc_1 <= 0
 c33: tau <= 0.001146788991
 c34: y_a7_proc_0 + y_a7_proc_1 + y_a7_proc_2 - tau = 0
 c35: y_a7_proc_0 <= 0
 c36: y_a7_proc_1 <= 0
 c37: y_a7_proc_2 <= 1
 c38: tau <= 0.001364256480
 c39: y_a8_proc_0 + y_a8_proc_1 + y_a8_proc_2 - tau = 0
 c40: y_a8_proc_0 <= 1
 c41: y_a8_proc_1 <= 0
 c42: y_a8_proc_2 <= 0
 c43: tau <= 0.000900900901
 c44: y_a9_proc_0 + y_a9_proc_1 - tau = 0
 c45: y_a9_proc_0 <= 1
 c46: y_a9_proc_1 <= 0
 c47: tau <= 0.000884173298
 c48: y_a10_proc_0 + y_a10_proc_2 - tau = 0
 c49: y_a10_proc_0 <= 0
 c50: y_a10_proc_2 <= 1
 c51: tau <= 0.000909918107
 c52: y_a11_proc_0 + y_a11_proc_1 - tau = 0
 c53: y_a11_proc_0 <= 0
 c54: y_a11_proc_1 <= 1
 c55: tau <= 0.001295336788
 c56: y_a12_proc_0 + y_a12_proc_1 + y_a12_proc_2 - tau = 0
 c57: y_a12_proc_0 <= 1
 c58: y_a12_proc_1 <= 0
 c59: y_a12_proc_2 <= 0
 c60: tau <= 0.001092896175
 c61: y_a13_proc_1 + y_a13_proc_2 - tau = 0
 c62: y_a13_proc_1 <= 0
 c63: y_a13_proc_2 <= 1
 c64: tau <= 0.001154734411
 c65: y_a14_proc_0 + y_a14_proc_1 - tau = 0
 c66: y_a14_proc_0 <= 1
 c67: y_a14_proc_1 <= 0
 c68: u_a1 - u_a0 - 566 y_a0_proc_0 - 713 y_a0_proc_1 - 900 y_a0_proc_2 >= 0
 c69: u_a0 - u_a2 - 961 y_a2_proc_0 - 1067 y_a2_proc_1 - 570 y_a2_proc_2 >= 0
 c70: u_a3 - u_a1 - 903 y_a1_proc_0 - 926 y_a1_proc_1 - 1282 y_a1_proc_2 >= 0
 c71: u_a4 - u_a2 - 961 y_a2_proc_0 - 1067 y_a2_proc_1 - 570 y_a2_proc_2 >= 0
 c72: u_a5 - u_a3 - 470 y_a3_proc_1 - 1126 y_a3_proc_2 >= 0
 c73: u_a5 - u_a6 - 526 y_a6_proc_0 - 1232 y_a6_proc_1 >= -1
 c74: u_a7 - u_a4 - 1236 y_a4_proc_0 - 918 y_a4_proc_1 - 986 y_a4_proc_2 >= 0
 c75: u_a8 - u_a2 - 961 y_a2_proc_0 - 1067 y_a2_proc_1 - 570 y_a2_proc_2 >= 0
 c76: u_a6 - u_a9 - 1110 y_a9_proc_0 - 1232 y_a9_proc_1 >= 0
 c77: u_a10 - u_a8 - 733 y_a8_proc_0 - 507 y_a8_proc_1 - 1124 y_a8_proc_2 >= 0
 c78: u_a6 - u_a11 - 515 y_a11_proc_0 - 1099 y_a11_proc_1 >= 0
 c79: u_a6 - u_a12 - 772 y_a12_proc_0 - 503 y_a12_proc_1 - 820 y_a12_proc_2 >= 
      0
 c80: u_a13 - u_a10 - 1220 y_a10_proc_0 - 1131 y_a10_proc_2 >= 0
 c81: u_a14 - u_a7 - 125 y_a7_proc_0 - 957 y_a7_proc_1 - 872 y_a7_proc_2 >= -1
 c82: u_a10 - u_a9 - 1110 y_a9_proc_0 - 1232 y_a9_proc_1 >= 0
 c83: u_a12 - u_a7 - 125 y_a7_proc_0 - 957 y_a7_proc_1 - 872 y_a7_proc_2 >= 0
 c84: u_a9 - u_a8 - 733 y_a8_proc_0 - 507 y_a8_proc_1 - 1124 y_a8_proc_2 >= 0
 c85: u_a2 - u_a4 - 1236 y_a4_proc_0 - 918 y_a4_proc_1 - 986 y_a4_proc_2 >= -1
 c86: u_a11 - u_a8 - 733 y_a8_proc_0 - 507 y_a8_proc_1 - 1124 y_a8_proc_2 >= 0
 c87: u_a14 - u_a0 - 566 y_a0_proc_0 - 713 y_a0_proc_1 - 900 y_a0_proc_2 >= -1
 c88: u_a8 - u_a10 - 1220 y_a10_proc_0 - 1131 y_a10_proc_2 >= -1
 c89: - 1236 y_a4_proc_0 - 918 y_a4_proc_1 - 986 y_a4_proc_2 >= -1
 c90: u_a1 - u_a7 - 125 y_a7_proc_0 - 957 y_a7_proc_1 - 872 y_a7_proc_2 >= 0
 c91: - 885 y_a5_proc_0 - 1262 y_a5_proc_2 >= -1
 c92: u_a2 - u_a13 - 685 y_a13_proc_1 - 915 y_a13_proc_2 >= -2
 c93: u_a11 - u_a12 - 772 y_a12_proc_0 - 503 y_a12_proc_1 - 820 y_a12_proc_2
       >= 0
 c94: u_a11 - u_a5 - 885 y_a5_proc_0 - 1262 y_a5_proc_2 >= 0
 c95: u_a2 - u_a14 - 866 y_a14_proc_0 - 761 y_a14_proc_1 >= 0
 c96: u_a14 - u_a13 - 685 y_a13_proc_1 - 915 y_a13_proc_2 >= -2
 c97: u_a1 - u_a0 - 713 y_a0_proc_1 >= 999996152
 c98: u_a1 - u_a0 - 900 y_a0_proc_2 >= 999996152
 c99: u_a1 - u_a0 - 566 y_a0_proc_0 >= 999998716
 c100: u_a0 - u_a1 - 926 y_a1_proc_1 >= -1000001281
 c101: u_a0 - u_a1 - 1282 y_a1_proc_2 >= -1000001281
 c102: u_a0 - u_a1 - 903 y_a1_proc_0 >= -999998717
 c103: u_a2 - u_a0 - 713 y_a0_proc_1 >= -2565
 c104: u_a2 - u_a0 - 900 y_a0_proc_2 >= -3847
 c105: u_a2 - u_a0 - 566 y_a0_proc_0 >= -2565
 c106: u_a0 - u_a2 - 1067 y_a2_proc_1 >= 0
 c107: u_a0 - u_a2 - 570 y_a2_proc_2 >= -1282
 c108: u_a0 - u_a2 - 961 y_a2_proc_0 >= 0
 c109: u_a3 - u_a0 - 713 y_a0_proc_1 >= 999994871
 c110: u_a3 - u_a0 - 900 y_a0_proc_2 >= 999996153
 c111: u_a0 - u_a3 - 470 y_a3_proc_1 >= -1000000000
 c112: u_a0 - u_a3 - 1126 y_a3_proc_2 >= -999998718
 c113: u_a4 - u_a0 - 713 y_a0_proc_1 >= -2565
 c114: u_a4 - u_a0 - 900 y_a0_proc_2 >= -3847
 c115: u_a4 - u_a0 - 566 y_a0_proc_0 >= -2565
 c116: u_a0 - u_a4 - 918 y_a4_proc_1 >= 0
 c117: u_a0 - u_a4 - 986 y_a4_proc_2 >= -1282
 c118: u_a0 - u_a4 - 1236 y_a4_proc_0 >= 0
 c119: u_a5 - u_a0 - 900 y_a0_proc_2 >= 999996153
 c120: u_a5 - u_a0 - 566 y_a0_proc_0 >= 999998717
 c121: u_a0 - u_a5 - 1262 y_a5_proc_2 >= -1000001282
 c122: u_a0 - u_a5 - 885 y_a5_proc_0 >= -999998718
 c123: u_a6 - u_a0 - 713 y_a0_proc_1 >= 999996153
 c124: u_a6 - u_a0 - 566 y_a0_proc_0 >= 999998717
 c125: u_a0 - u_a6 - 1232 y_a6_proc_1 >= -1000001282
 c126: u_a0 - u_a6 - 526 y_a6_proc_0 >= -999998718
 c127: u_a7 - u_a0 - 713 y_a0_proc_1 >= -3847
 c128: u_a7 - u_a0 - 900 y_a0_proc_2 >= -2565
 c129: u_a7 - u_a0 - 566 y_a0_proc_0 >= -2565
 c130: u_a0 - u_a7 - 957 y_a7_proc_1 >= -1282
 c131: u_a0 - u_a7 - 872 y_a7_proc_2 >= 0
 c132: u_a0 - u_a7 - 125 y_a7_proc_0 >= 0
 c133: u_a8 - u_a0 - 713 y_a0_proc_1 >= -2564
 c134: u_a8 - u_a0 - 900 y_a0_proc_2 >= -2564
 c135: u_a8 - u_a0 - 566 y_a0_proc_0 >= 0
 c136: u_a0 - u_a8 - 507 y_a8_proc_1 >= -2565
 c137: u_a0 - u_a8 - 1124 y_a8_proc_2 >= -2565
 c138: u_a0 - u_a8 - 733 y_a8_proc_0 >= -1
 c139: u_a9 - u_a0 - 713 y_a0_proc_1 >= -2564
 c140: u_a9 - u_a0 - 566 y_a0_proc_0 >= 0
 c141: u_a0 - u_a9 - 1232 y_a9_proc_1 >= -2565
 c142: u_a0 - u_a9 - 1110 y_a9_proc_0 >= -1
 c143: u_a10 - u_a0 - 900 y_a0_proc_2 >= -2564
 c144: u_a10 - u_a0 - 566 y_a0_proc_0 >= -2564
 c145: u_a0 - u_a10 - 1131 y_a10_proc_2 >= -1
 c146: u_a0 - u_a10 - 1220 y_a10_proc_0 >= -1
 c147: u_a11 - u_a0 - 713 y_a0_proc_1 >= 999996153
 c148: u_a11 - u_a0 - 566 y_a0_proc_0 >= 999996153
 c149: u_a0 - u_a11 - 1099 y_a11_proc_1 >= -999998718
 c150: u_a0 - u_a11 - 515 y_a11_proc_0 >= -999998718
 c151: u_a12 - u_a0 - 713 y_a0_proc_1 >= -2565
 c152: u_a12 - u_a0 - 900 y_a0_proc_2 >= -2565
 c153: u_a12 - u_a0 - 566 y_a0_proc_0 >= -1
 c154: u_a0 - u_a12 - 503 y_a12_proc_1 >= -2564
 c155: u_a0 - u_a12 - 820 y_a12_proc_2 >= -2564
 c156: u_a0 - u_a12 - 772 y_a12_proc_0 >= 0
 c157: u_a13 - u_a0 - 713 y_a0_proc_1 >= -3845
 c158: u_a13 - u_a0 - 900 y_a0_proc_2 >= -2563
 c159: u_a0 - u_a13 - 685 y_a13_proc_1 >= -1284
 c160: u_a0 - u_a13 - 915 y_a13_proc_2 >= -2
 c161: u_a14 - u_a0 - 713 y_a0_proc_1 >= -2565
 c162: u_a14 - u_a0 - 566 y_a0_proc_0 >= -1
 c163: u_a0 - u_a14 - 761 y_a14_proc_1 >= -2564
 c164: u_a0 - u_a14 - 866 y_a14_proc_0 >= 0
 c165: u_a2 - u_a1 - 926 y_a1_proc_1 >= -1000001282
 c166: u_a2 - u_a1 - 1282 y_a1_proc_2 >= -1000002564
 c167: u_a2 - u_a1 - 903 y_a1_proc_0 >= -1000001282
 c168: u_a1 - u_a2 - 1067 y_a2_proc_1 >= 999998717
 c169: u_a1 - u_a2 - 570 y_a2_proc_2 >= 999997435
 c170: u_a1 - u_a2 - 961 y_a2_proc_0 >= 999998717
 c171: u_a3 - u_a1 - 926 y_a1_proc_1 >= -3845
 c172: u_a3 - u_a1 - 1282 y_a1_proc_2 >= -2563
 c173: u_a1 - u_a3 - 470 y_a3_proc_1 >= -1284
 c174: u_a1 - u_a3 - 1126 y_a3_proc_2 >= -2
 c175: u_a4 - u_a1 - 926 y_a1_proc_1 >= -1000001282
 c176: u_a4 - u_a1 - 1282 y_a1_proc_2 >= -1000002564
 c177: u_a4 - u_a1 - 903 y_a1_proc_0 >= -1000001282
 c178: u_a1 - u_a4 - 918 y_a4_proc_1 >= 999998717
 c179: u_a1 - u_a4 - 986 y_a4_proc_2 >= 999997435
 c180: u_a1 - u_a4 - 1236 y_a4_proc_0 >= 999998717
 c181: u_a5 - u_a1 - 1282 y_a1_proc_2 >= -2563
 c182: u_a5 - u_a1 - 903 y_a1_proc_0 >= 1
 c183: u_a1 - u_a5 - 1262 y_a5_proc_2 >= -2566
 c184: u_a1 - u_a5 - 885 y_a5_proc_0 >= -2
 c185: u_a6 - u_a1 - 926 y_a1_proc_1 >= -2563
 c186: u_a6 - u_a1 - 903 y_a1_proc_0 >= 1
 c187: u_a1 - u_a6 - 1232 y_a6_proc_1 >= -2566
 c188: u_a1 - u_a6 - 526 y_a6_proc_0 >= -2
 c189: u_a7 - u_a1 - 926 y_a1_proc_1 >= -1000002563
 c190: u_a7 - u_a1 - 1282 y_a1_proc_2 >= -1000001281
 c191: u_a7 - u_a1 - 903 y_a1_proc_0 >= -1000001281
 c192: u_a1 - u_a7 - 957 y_a7_proc_1 >= 999997434
 c193: u_a1 - u_a7 - 872 y_a7_proc_2 >= 999998716
 c194: u_a1 - u_a7 - 125 y_a7_proc_0 >= 999998716
 c195: u_a8 - u_a1 - 926 y_a1_proc_1 >= -1000001280
 c196: u_a8 - u_a1 - 1282 y_a1_proc_2 >= -1000001280
 c197: u_a8 - u_a1 - 903 y_a1_proc_0 >= -999998716
 c198: u_a1 - u_a8 - 507 y_a8_proc_1 >= 999996151
 c199: u_a1 - u_a8 - 1124 y_a8_proc_2 >= 999996151
 c200: u_a1 - u_a8 - 733 y_a8_proc_0 >= 999998715
 c201: u_a9 - u_a1 - 926 y_a1_proc_1 >= -1000001280
 c202: u_a9 - u_a1 - 903 y_a1_proc_0 >= -999998716
 c203: u_a1 - u_a9 - 1232 y_a9_proc_1 >= 999996151
 c204: u_a1 - u_a9 - 1110 y_a9_proc_0 >= 999998715
 c205: u_a10 - u_a1 - 1282 y_a1_proc_2 >= -1000001280
 c206: u_a10 - u_a1 - 903 y_a1_proc_0 >= -1000001280
 c207: u_a1 - u_a10 - 1131 y_a10_proc_2 >= 999998715
 c208: u_a1 - u_a10 - 1220 y_a10_proc_0 >= 999998715
 c209: u_a11 - u_a1 - 926 y_a1_proc_1 >= -2563
 c210: u_a11 - u_a1 - 903 y_a1_proc_0 >= -2563
 c211: u_a1 - u_a11 - 1099 y_a11_proc_1 >= -2
 c212: u_a1 - u_a11 - 515 y_a11_proc_0 >= -2
 c213: u_a12 - u_a1 - 926 y_a1_proc_1 >= -1000001281
 c214: u_a12 - u_a1 - 1282 y_a1_proc_2 >= -1000001281
 c215: u_a12 - u_a1 - 903 y_a1_proc_0 >= -999998717
 c216: u_a1 - u_a12 - 503 y_a12_proc_1 >= 999996152
 c217: u_a1 - u_a12 - 820 y_a12_proc_2 >= 999996152
 c218: u_a1 - u_a12 - 772 y_a12_proc_0 >= 999998716
 c219: u_a13 - u_a1 - 926 y_a1_proc_1 >= -999999998
 c220: u_a13 - u_a1 - 1282 y_a1_proc_2 >= -999998716
 c221: u_a1 - u_a13 - 685 y_a13_proc_1 >= 999994869
 c222: u_a1 - u_a13 - 915 y_a13_proc_2 >= 999996151
 c223: u_a14 - u_a1 - 926 y_a1_proc_1 >= -1000001282
 c224: u_a14 - u_a1 - 903 y_a1_proc_0 >= -999998718
 c225: u_a1 - u_a14 - 761 y_a14_proc_1 >= 999996153
 c226: u_a1 - u_a14 - 866 y_a14_proc_0 >= 999998717
 c227: u_a3 - u_a2 - 1067 y_a2_proc_1 >= 999996154
 c228: u_a3 - u_a2 - 570 y_a2_proc_2 >= 999996154
 c229: u_a2 - u_a3 - 470 y_a3_proc_1 >= -999998719
 c230: u_a2 - u_a3 - 1126 y_a3_proc_2 >= -999998719
 c231: u_a4 - u_a2 - 1067 y_a2_proc_1 >= 0
 c232: u_a4 - u_a2 - 570 y_a2_proc_2 >= -2564
 c233: u_a4 - u_a2 - 961 y_a2_proc_0 >= -2564
 c234: u_a2 - u_a4 - 918 y_a4_proc_1 >= -1
 c235: u_a2 - u_a4 - 986 y_a4_proc_2 >= -2565
 c236: u_a2 - u_a4 - 1236 y_a4_proc_0 >= -2565
 c237: u_a5 - u_a2 - 570 y_a2_proc_2 >= 999994872
 c238: u_a5 - u_a2 - 961 y_a2_proc_0 >= 999996154
 c239: u_a2 - u_a5 - 1262 y_a5_proc_2 >= -1000000001
 c240: u_a2 - u_a5 - 885 y_a5_proc_0 >= -999998719
 c241: u_a6 - u_a2 - 1067 y_a2_proc_1 >= 999996154
 c242: u_a6 - u_a2 - 961 y_a2_proc_0 >= 999996154
 c243: u_a2 - u_a6 - 1232 y_a6_proc_1 >= -999998719
 c244: u_a2 - u_a6 - 526 y_a6_proc_0 >= -999998719
 c245: u_a7 - u_a2 - 1067 y_a2_proc_1 >= -2564
 c246: u_a7 - u_a2 - 570 y_a2_proc_2 >= -2564
 c247: u_a7 - u_a2 - 961 y_a2_proc_0 >= -3846
 c248: u_a2 - u_a7 - 957 y_a7_proc_1 >= -1
 c249: u_a2 - u_a7 - 872 y_a7_proc_2 >= -1
 c250: u_a2 - u_a7 - 125 y_a7_proc_0 >= -1283
 c251: u_a8 - u_a2 - 1067 y_a2_proc_1 >= -2563
 c252: u_a8 - u_a2 - 570 y_a2_proc_2 >= -3845
 c253: u_a8 - u_a2 - 961 y_a2_proc_0 >= -2563
 c254: u_a2 - u_a8 - 507 y_a8_proc_1 >= -2
 c255: u_a2 - u_a8 - 1124 y_a8_proc_2 >= -1284
 c256: u_a2 - u_a8 - 733 y_a8_proc_0 >= -2
 c257: u_a9 - u_a2 - 1067 y_a2_proc_1 >= -2563
 c258: u_a9 - u_a2 - 961 y_a2_proc_0 >= -2563
 c259: u_a2 - u_a9 - 1232 y_a9_proc_1 >= -2
 c260: u_a2 - u_a9 - 1110 y_a9_proc_0 >= -2
 c261: u_a10 - u_a2 - 570 y_a2_proc_2 >= -2563
 c262: u_a10 - u_a2 - 961 y_a2_proc_0 >= -3845
 c263: u_a2 - u_a10 - 1131 y_a10_proc_2 >= -2
 c264: u_a2 - u_a10 - 1220 y_a10_proc_0 >= -1284
 c265: u_a11 - u_a2 - 1067 y_a2_proc_1 >= 999998718
 c266: u_a11 - u_a2 - 961 y_a2_proc_0 >= 999996154
 c267: u_a2 - u_a11 - 1099 y_a11_proc_1 >= -999998719
 c268: u_a2 - u_a11 - 515 y_a11_proc_0 >= -1000001283
 c269: u_a12 - u_a2 - 1067 y_a2_proc_1 >= -2564
 c270: u_a12 - u_a2 - 570 y_a2_proc_2 >= -3846
 c271: u_a12 - u_a2 - 961 y_a2_proc_0 >= -2564
 c272: u_a2 - u_a12 - 503 y_a12_proc_1 >= -1
 c273: u_a2 - u_a12 - 820 y_a12_proc_2 >= -1283
 c274: u_a2 - u_a12 - 772 y_a12_proc_0 >= -1
 c275: u_a13 - u_a2 - 1067 y_a2_proc_1 >= -2563
 c276: u_a13 - u_a2 - 570 y_a2_proc_2 >= -2563
 c277: u_a2 - u_a13 - 685 y_a13_proc_1 >= -2
 c278: u_a2 - u_a13 - 915 y_a13_proc_2 >= -2
 c279: u_a14 - u_a2 - 1067 y_a2_proc_1 >= -2565
 c280: u_a14 - u_a2 - 961 y_a2_proc_0 >= -2565
 c281: u_a2 - u_a14 - 761 y_a14_proc_1 >= 0
 c282: u_a2 - u_a14 - 866 y_a14_proc_0 >= 0
 c283: u_a4 - u_a3 - 470 y_a3_proc_1 >= -1000001282
 c284: u_a4 - u_a3 - 1126 y_a3_proc_2 >= -1000001282
 c285: u_a3 - u_a4 - 918 y_a4_proc_1 >= 999998717
 c286: u_a3 - u_a4 - 986 y_a4_proc_2 >= 999998717
 c287: u_a5 - u_a3 - 1126 y_a3_proc_2 >= -2564
 c288: u_a3 - u_a5 - 1262 y_a5_proc_2 >= -1
 c289: u_a6 - u_a3 - 470 y_a3_proc_1 >= -5128
 c290: u_a3 - u_a6 - 1232 y_a6_proc_1 >= -1
 c291: u_a7 - u_a3 - 470 y_a3_proc_1 >= -1000001283
 c292: u_a7 - u_a3 - 1126 y_a3_proc_2 >= -999998719
 c293: u_a3 - u_a7 - 957 y_a7_proc_1 >= 999996154
 c294: u_a3 - u_a7 - 872 y_a7_proc_2 >= 999998718
 c295: u_a8 - u_a3 - 470 y_a3_proc_1 >= -1000002563
 c296: u_a8 - u_a3 - 1126 y_a3_proc_2 >= -1000001281
 c297: u_a3 - u_a8 - 507 y_a8_proc_1 >= 999997434
 c298: u_a3 - u_a8 - 1124 y_a8_proc_2 >= 999998716
 c299: u_a9 - u_a3 - 470 y_a3_proc_1 >= -1000002564
 c300: u_a3 - u_a9 - 1232 y_a9_proc_1 >= 999997435
 c301: u_a10 - u_a3 - 1126 y_a3_proc_2 >= -999998717
 c302: u_a3 - u_a10 - 1131 y_a10_proc_2 >= 999998716
 c303: u_a11 - u_a3 - 470 y_a3_proc_1 >= -2564
 c304: u_a3 - u_a11 - 1099 y_a11_proc_1 >= -1
 c305: u_a12 - u_a3 - 470 y_a3_proc_1 >= -1000002564
 c306: u_a12 - u_a3 - 1126 y_a3_proc_2 >= -1000001282
 c307: u_a3 - u_a12 - 503 y_a12_proc_1 >= 999997435
 c308: u_a3 - u_a12 - 820 y_a12_proc_2 >= 999998717
 c309: u_a13 - u_a3 - 470 y_a3_proc_1 >= -1000001281
 c310: u_a13 - u_a3 - 1126 y_a3_proc_2 >= -999998717
 c311: u_a3 - u_a13 - 685 y_a13_proc_1 >= 999996152
 c312: u_a3 - u_a13 - 915 y_a13_proc_2 >= 999998716
 c313: u_a14 - u_a3 - 470 y_a3_proc_1 >= -1000002564
 c314: u_a3 - u_a14 - 761 y_a14_proc_1 >= 999997435
 c315: u_a5 - u_a4 - 986 y_a4_proc_2 >= 999997435
 c316: u_a5 - u_a4 - 1236 y_a4_proc_0 >= 999998717
 c317: u_a4 - u_a5 - 1262 y_a5_proc_2 >= -1000002564
 c318: u_a4 - u_a5 - 885 y_a5_proc_0 >= -1000001282
 c319: u_a6 - u_a4 - 918 y_a4_proc_1 >= 999996154
 c320: u_a6 - u_a4 - 1236 y_a4_proc_0 >= 999996154
 c321: u_a4 - u_a6 - 1232 y_a6_proc_1 >= -999998719
 c322: u_a4 - u_a6 - 526 y_a6_proc_0 >= -999998719
 c323: u_a7 - u_a4 - 918 y_a4_proc_1 >= -2564
 c324: u_a7 - u_a4 - 986 y_a4_proc_2 >= -2564
 c325: u_a7 - u_a4 - 1236 y_a4_proc_0 >= -3846
 c326: u_a4 - u_a7 - 957 y_a7_proc_1 >= -1
 c327: u_a4 - u_a7 - 872 y_a7_proc_2 >= -1
 c328: u_a4 - u_a7 - 125 y_a7_proc_0 >= -1283
 c329: u_a8 - u_a4 - 918 y_a4_proc_1 >= -2563
 c330: u_a8 - u_a4 - 986 y_a4_proc_2 >= -3845
 c331: u_a8 - u_a4 - 1236 y_a4_proc_0 >= -2563
 c332: u_a4 - u_a8 - 507 y_a8_proc_1 >= -2
 c333: u_a4 - u_a8 - 1124 y_a8_proc_2 >= -1284
 c334: u_a4 - u_a8 - 733 y_a8_proc_0 >= -2
 c335: u_a9 - u_a4 - 918 y_a4_proc_1 >= -2563
 c336: u_a9 - u_a4 - 1236 y_a4_proc_0 >= -2563
 c337: u_a4 - u_a9 - 1232 y_a9_proc_1 >= -2
 c338: u_a4 - u_a9 - 1110 y_a9_proc_0 >= -2
 c339: u_a10 - u_a4 - 986 y_a4_proc_2 >= -2563
 c340: u_a10 - u_a4 - 1236 y_a4_proc_0 >= -3845
 c341: u_a4 - u_a10 - 1131 y_a10_proc_2 >= -2
 c342: u_a4 - u_a10 - 1220 y_a10_proc_0 >= -1284
 c343: u_a11 - u_a4 - 918 y_a4_proc_1 >= 999998718
 c344: u_a11 - u_a4 - 1236 y_a4_proc_0 >= 999996154
 c345: u_a4 - u_a11 - 1099 y_a11_proc_1 >= -999998719
 c346: u_a4 - u_a11 - 515 y_a11_proc_0 >= -1000001283
 c347: u_a12 - u_a4 - 918 y_a4_proc_1 >= -2564
 c348: u_a12 - u_a4 - 986 y_a4_proc_2 >= -3846
 c349: u_a12 - u_a4 - 1236 y_a4_proc_0 >= -2564
 c350: u_a4 - u_a12 - 503 y_a12_proc_1 >= -1
 c351: u_a4 - u_a12 - 820 y_a12_proc_2 >= -1283
 c352: u_a4 - u_a12 - 772 y_a12_proc_0 >= -1
 c353: u_a13 - u_a4 - 918 y_a4_proc_1 >= -2563
 c354: u_a13 - u_a4 - 986 y_a4_proc_2 >= -2563
 c355: u_a4 - u_a13 - 685 y_a13_proc_1 >= -2
 c356: u_a4 - u_a13 - 915 y_a13_proc_2 >= -2
 c357: u_a14 - u_a4 - 918 y_a4_proc_1 >= -2565
 c358: u_a14 - u_a4 - 1236 y_a4_proc_0 >= -2565
 c359: u_a4 - u_a14 - 761 y_a14_proc_1 >= 0
 c360: u_a4 - u_a14 - 866 y_a14_proc_0 >= 0
 c361: u_a6 - u_a5 - 885 y_a5_proc_0 >= 0
 c362: u_a5 - u_a6 - 526 y_a6_proc_0 >= -1
 c363: u_a7 - u_a5 - 1262 y_a5_proc_2 >= -999998719
 c364: u_a7 - u_a5 - 885 y_a5_proc_0 >= -999998719
 c365: u_a5 - u_a7 - 872 y_a7_proc_2 >= 999996154
 c366: u_a5 - u_a7 - 125 y_a7_proc_0 >= 999996154
 c367: u_a8 - u_a5 - 1262 y_a5_proc_2 >= -1000001281
 c368: u_a8 - u_a5 - 885 y_a5_proc_0 >= -999998717
 c369: u_a5 - u_a8 - 1124 y_a8_proc_2 >= 999996152
 c370: u_a5 - u_a8 - 733 y_a8_proc_0 >= 999998716
 c371: u_a9 - u_a5 - 885 y_a5_proc_0 >= -999998717
 c372: u_a5 - u_a9 - 1110 y_a9_proc_0 >= 999998716
 c373: u_a10 - u_a5 - 1262 y_a5_proc_2 >= -999998717
 c374: u_a10 - u_a5 - 885 y_a5_proc_0 >= -999998717
 c375: u_a5 - u_a10 - 1131 y_a10_proc_2 >= 999996152
 c376: u_a5 - u_a10 - 1220 y_a10_proc_0 >= 999996152
 c377: u_a11 - u_a5 - 885 y_a5_proc_0 >= -2564
 c378: u_a5 - u_a11 - 515 y_a11_proc_0 >= -1
 c379: u_a12 - u_a5 - 1262 y_a5_proc_2 >= -1000001282
 c380: u_a12 - u_a5 - 885 y_a5_proc_0 >= -999998718
 c381: u_a5 - u_a12 - 820 y_a12_proc_2 >= 999996153
 c382: u_a5 - u_a12 - 772 y_a12_proc_0 >= 999998717
 c383: u_a13 - u_a5 - 1262 y_a5_proc_2 >= -1000001281
 c384: u_a5 - u_a13 - 915 y_a13_proc_2 >= 999998716
 c385: u_a14 - u_a5 - 885 y_a5_proc_0 >= -999998719
 c386: u_a5 - u_a14 - 866 y_a14_proc_0 >= 999998718
 c387: u_a7 - u_a6 - 1232 y_a6_proc_1 >= -1000000001
 c388: u_a7 - u_a6 - 526 y_a6_proc_0 >= -999998719
 c389: u_a6 - u_a7 - 957 y_a7_proc_1 >= 999994872
 c390: u_a6 - u_a7 - 125 y_a7_proc_0 >= 999996154
 c391: u_a8 - u_a6 - 1232 y_a6_proc_1 >= -1000001282
 c392: u_a8 - u_a6 - 526 y_a6_proc_0 >= -999998718
 c393: u_a6 - u_a8 - 507 y_a8_proc_1 >= 999996153
 c394: u_a6 - u_a8 - 733 y_a8_proc_0 >= 999998717
 c395: u_a9 - u_a6 - 1232 y_a6_proc_1 >= -1000001282
 c396: u_a9 - u_a6 - 526 y_a6_proc_0 >= -999998718
 c397: u_a6 - u_a9 - 1232 y_a9_proc_1 >= 999996153
 c398: u_a6 - u_a9 - 1110 y_a9_proc_0 >= 999998717
 c399: u_a10 - u_a6 - 526 y_a6_proc_0 >= -1000001281
 c400: u_a6 - u_a10 - 1220 y_a10_proc_0 >= 999998716
 c401: u_a11 - u_a6 - 1232 y_a6_proc_1 >= -2565
 c402: u_a11 - u_a6 - 526 y_a6_proc_0 >= -2565
 c403: u_a6 - u_a11 - 1099 y_a11_proc_1 >= 0
 c404: u_a6 - u_a11 - 515 y_a11_proc_0 >= 0
 c405: u_a12 - u_a6 - 1232 y_a6_proc_1 >= -1000001283
 c406: u_a12 - u_a6 - 526 y_a6_proc_0 >= -999998719
 c407: u_a6 - u_a12 - 503 y_a12_proc_1 >= 999996154
 c408: u_a6 - u_a12 - 772 y_a12_proc_0 >= 999998718
 c409: u_a13 - u_a6 - 1232 y_a6_proc_1 >= -1000002564
 c410: u_a6 - u_a13 - 685 y_a13_proc_1 >= 999997435
 c411: u_a14 - u_a6 - 1232 y_a6_proc_1 >= -1000001283
 c412: u_a14 - u_a6 - 526 y_a6_proc_0 >= -999998719
 c413: u_a6 - u_a14 - 761 y_a14_proc_1 >= 999996154
 c414: u_a6 - u_a14 - 866 y_a14_proc_0 >= 999998718
 c415: u_a8 - u_a7 - 957 y_a7_proc_1 >= -3845
 c416: u_a8 - u_a7 - 872 y_a7_proc_2 >= -2563
 c417: u_a8 - u_a7 - 125 y_a7_proc_0 >= -2563
 c418: u_a7 - u_a8 - 507 y_a8_proc_1 >= -1284
 c419: u_a7 - u_a8 - 1124 y_a8_proc_2 >= -2
 c420: u_a7 - u_a8 - 733 y_a8_proc_0 >= -2
 c421: u_a9 - u_a7 - 957 y_a7_proc_1 >= -3845
 c422: u_a9 - u_a7 - 125 y_a7_proc_0 >= -2563
 c423: u_a7 - u_a9 - 1232 y_a9_proc_1 >= -1284
 c424: u_a7 - u_a9 - 1110 y_a9_proc_0 >= -2
 c425: u_a10 - u_a7 - 872 y_a7_proc_2 >= 1
 c426: u_a10 - u_a7 - 125 y_a7_proc_0 >= -2563
 c427: u_a7 - u_a10 - 1131 y_a10_proc_2 >= -2
 c428: u_a7 - u_a10 - 1220 y_a10_proc_0 >= -2566
 c429: u_a11 - u_a7 - 957 y_a7_proc_1 >= 999996154
 c430: u_a11 - u_a7 - 125 y_a7_proc_0 >= 999994872
 c431: u_a7 - u_a11 - 1099 y_a11_proc_1 >= -999998719
 c432: u_a7 - u_a11 - 515 y_a11_proc_0 >= -1000000001
 c433: u_a12 - u_a7 - 957 y_a7_proc_1 >= -3846
 c434: u_a12 - u_a7 - 872 y_a7_proc_2 >= -2564
 c435: u_a12 - u_a7 - 125 y_a7_proc_0 >= -2564
 c436: u_a7 - u_a12 - 503 y_a12_proc_1 >= -1283
 c437: u_a7 - u_a12 - 820 y_a12_proc_2 >= -1
 c438: u_a7 - u_a12 - 772 y_a12_proc_0 >= -1
 c439: u_a13 - u_a7 - 957 y_a7_proc_1 >= -2563
 c440: u_a13 - u_a7 - 872 y_a7_proc_2 >= 1
 c441: u_a7 - u_a13 - 685 y_a13_proc_1 >= -2566
 c442: u_a7 - u_a13 - 915 y_a13_proc_2 >= -2
 c443: u_a14 - u_a7 - 957 y_a7_proc_1 >= -3847
 c444: u_a14 - u_a7 - 125 y_a7_proc_0 >= -2565
 c445: u_a7 - u_a14 - 761 y_a14_proc_1 >= -1282
 c446: u_a7 - u_a14 - 866 y_a14_proc_0 >= 0
 c447: u_a9 - u_a8 - 507 y_a8_proc_1 >= -2564
 c448: u_a9 - u_a8 - 733 y_a8_proc_0 >= 0
 c449: u_a8 - u_a9 - 1232 y_a9_proc_1 >= -2565
 c450: u_a8 - u_a9 - 1110 y_a9_proc_0 >= -1
 c451: u_a10 - u_a8 - 1124 y_a8_proc_2 >= -2564
 c452: u_a10 - u_a8 - 733 y_a8_proc_0 >= -2564
 c453: u_a8 - u_a10 - 1131 y_a10_proc_2 >= -1
 c454: u_a8 - u_a10 - 1220 y_a10_proc_0 >= -1
 c455: u_a11 - u_a8 - 507 y_a8_proc_1 >= 999996152
 c456: u_a11 - u_a8 - 733 y_a8_proc_0 >= 999996152
 c457: u_a8 - u_a11 - 1099 y_a11_proc_1 >= -999998717
 c458: u_a8 - u_a11 - 515 y_a11_proc_0 >= -999998717
 c459: u_a12 - u_a8 - 507 y_a8_proc_1 >= -2565
 c460: u_a12 - u_a8 - 1124 y_a8_proc_2 >= -2565
 c461: u_a12 - u_a8 - 733 y_a8_proc_0 >= -1
 c462: u_a8 - u_a12 - 503 y_a12_proc_1 >= -2564
 c463: u_a8 - u_a12 - 820 y_a12_proc_2 >= -2564
 c464: u_a8 - u_a12 - 772 y_a12_proc_0 >= 0
 c465: u_a13 - u_a8 - 507 y_a8_proc_1 >= -3846
 c466: u_a13 - u_a8 - 1124 y_a8_proc_2 >= -2564
 c467: u_a8 - u_a13 - 685 y_a13_proc_1 >= -1283
 c468: u_a8 - u_a13 - 915 y_a13_proc_2 >= -1
 c469: u_a14 - u_a8 - 507 y_a8_proc_1 >= -2566
 c470: u_a14 - u_a8 - 733 y_a8_proc_0 >= -2
 c471: u_a8 - u_a14 - 761 y_a14_proc_1 >= -2563
 c472: u_a8 - u_a14 - 866 y_a14_proc_0 >= 1
 c473: u_a10 - u_a9 - 1110 y_a9_proc_0 >= -2564
 c474: u_a9 - u_a10 - 1220 y_a10_proc_0 >= -1
 c475: u_a11 - u_a9 - 1232 y_a9_proc_1 >= 999996152
 c476: u_a11 - u_a9 - 1110 y_a9_proc_0 >= 999996152
 c477: u_a9 - u_a11 - 1099 y_a11_proc_1 >= -999998717
 c478: u_a9 - u_a11 - 515 y_a11_proc_0 >= -999998717
 c479: u_a12 - u_a9 - 1232 y_a9_proc_1 >= -2565
 c480: u_a12 - u_a9 - 1110 y_a9_proc_0 >= -1
 c481: u_a9 - u_a12 - 503 y_a12_proc_1 >= -2564
 c482: u_a9 - u_a12 - 772 y_a12_proc_0 >= 0
 c483: u_a13 - u_a9 - 1232 y_a9_proc_1 >= -5128
 c484: u_a9 - u_a13 - 685 y_a13_proc_1 >= -1
 c485: u_a14 - u_a9 - 1232 y_a9_proc_1 >= -2566
 c486: u_a14 - u_a9 - 1110 y_a9_proc_0 >= -2
 c487: u_a9 - u_a14 - 761 y_a14_proc_1 >= -2563
 c488: u_a9 - u_a14 - 866 y_a14_proc_0 >= 1
 c489: u_a11 - u_a10 - 1220 y_a10_proc_0 >= 999993588
 c490: u_a10 - u_a11 - 515 y_a11_proc_0 >= -999998717
 c491: u_a12 - u_a10 - 1131 y_a10_proc_2 >= -2565
 c492: u_a12 - u_a10 - 1220 y_a10_proc_0 >= -2565
 c493: u_a10 - u_a12 - 820 y_a12_proc_2 >= 0
 c494: u_a10 - u_a12 - 772 y_a12_proc_0 >= 0
 c495: u_a13 - u_a10 - 1131 y_a10_proc_2 >= 0
 c496: u_a10 - u_a13 - 915 y_a13_proc_2 >= -1
 c497: u_a14 - u_a10 - 1220 y_a10_proc_0 >= -2566
 c498: u_a10 - u_a14 - 866 y_a14_proc_0 >= 1
 c499: u_a12 - u_a11 - 1099 y_a11_proc_1 >= -1000001282
 c500: u_a12 - u_a11 - 515 y_a11_proc_0 >= -1000001282
 c501: u_a11 - u_a12 - 503 y_a12_proc_1 >= 999998717
 c502: u_a11 - u_a12 - 772 y_a12_proc_0 >= 999998717
 c503: u_a13 - u_a11 - 1099 y_a11_proc_1 >= -1000001281
 c504: u_a11 - u_a13 - 685 y_a13_proc_1 >= 999998716
 c505: u_a14 - u_a11 - 1099 y_a11_proc_1 >= -1000001282
 c506: u_a14 - u_a11 - 515 y_a11_proc_0 >= -1000001282
 c507: u_a11 - u_a14 - 761 y_a14_proc_1 >= 999998717
 c508: u_a11 - u_a14 - 866 y_a14_proc_0 >= 999998717
 c509: u_a13 - u_a12 - 503 y_a12_proc_1 >= -3845
 c510: u_a13 - u_a12 - 820 y_a12_proc_2 >= -2563
 c511: u_a12 - u_a13 - 685 y_a13_proc_1 >= -1284
 c512: u_a12 - u_a13 - 915 y_a13_proc_2 >= -2
 c513: u_a14 - u_a12 - 503 y_a12_proc_1 >= -2565
 c514: u_a14 - u_a12 - 772 y_a12_proc_0 >= -1
 c515: u_a12 - u_a14 - 761 y_a14_proc_1 >= -2564
 c516: u_a12 - u_a14 - 866 y_a14_proc_0 >= 0
 c517: u_a14 - u_a13 - 685 y_a13_proc_1 >= -5130
 c518: u_a13 - u_a14 - 761 y_a14_proc_1 >= 1

Bounds
End
